970689
142,57,212,44,229,103,211,92,167,171,203,148,81,221,40,76,120,105,127,140,218,189,98,201,91,174,53,55,17,52,99,215,104,65,23,157,179,114,1,51,220,58,138,10,28,83,94,56,75,173,153,64,163,164,13,213,45,110,222,43,29,7,193,109,119,96,14,59,15,188,184,2,144,155,210,143,25,21,95,90,116,182,19,209,6,0,35,228,93,107,33,36,191,106,115,160,178,195,74,214,77,61,54,101,26,111,154,132,27,204,49,150,34,86,129,39,80,168,88,100,183,165,67,8,3,20,152,32,128,223,11,145,227,216,169,108,149,170,185,89,141,87,186,102,37,202,5,175,16,46,224,18,124,226,133,47,12,219,63,4,136,137,177,42,73,156,70,31,139,48,117,82,134,161,71,62,162,126,146,206,66,38,30,207,158,198,97,159,41,50,72,208,225,68,22,176,112,69,205,166,187,78,130,60,147,172,123,84,122,24,131,79,181,135,180,192,194,85,217,125,118,197,113,151,121,190,9,200,199,196
